
List of user-set options:

                                    Name   Value                used
                           compl_inf_tol = 1                     yes
                         constr_viol_tol = 1                     yes
                            dual_inf_tol = 1000                  yes
                           linear_solver = ma97                  yes
                              ma86_small = 1e-30                  no
                                  ma86_u = 0.0001                 no
                              ma97_order = best                  yes
                              ma97_small = 1e-30                 yes
                            ma97_switch1 = at_start              yes
                            ma97_switch2 = od_hd_reuse           yes
                                  ma97_u = 1e-06                 yes
                               ma97_umax = 0.5                   yes
                                max_iter = 1000                  yes
                    max_refinement_steps = 20                    yes
                    min_refinement_steps = 5                     yes
                                 mu_init = 1e-06                 yes
           mu_superlinear_decrease_power = 1.25                  yes
                   nlp_scaling_min_value = 1e-08                 yes
                        option_file_name = Preset_Case:_12_pf.opt  yes
                             output_file = ./tmp/Preset_Case:_12_pf.output  yes
                      print_user_options = yes                   yes
        required_infeasibility_reduction = 1                      no
                                     tol = 1e-08                 yes
                   warm_start_bound_frac = 1e-20                 yes
                   warm_start_bound_push = 1e-20                 yes
                   warm_start_init_point = yes                   yes
              warm_start_mult_bound_push = 1e-20                 yes
                warm_start_mult_init_max = 1e+40                 yes
             warm_start_slack_bound_frac = 1e-20                 yes
             warm_start_slack_bound_push = 1e-20                 yes

******************************************************************************
This program contains Ipopt, a library for large-scale nonlinear optimization.
 Ipopt is released as open source code under the Eclipse Public License (EPL).
         For more information visit http://projects.coin-or.org/Ipopt
******************************************************************************

This is Ipopt version 3.12.10, running with linear solver ma97.

Number of nonzeros in equality constraint Jacobian...:   123443
Number of nonzeros in inequality constraint Jacobian.:      213
Number of nonzeros in Lagrangian Hessian.............:    49069

Total number of variables............................:    31591
                     variables with only lower bounds:    12912
                variables with lower and upper bounds:    15130
                     variables with only upper bounds:        0
Total number of equality constraints.................:    31483
Total number of inequality constraints...............:       25
        inequality constraints with only lower bounds:        4
   inequality constraints with lower and upper bounds:        0
        inequality constraints with only upper bounds:       21

iter    objective    inf_pr   inf_du lg(mu)  ||d||  lg(rg) alpha_du alpha_pr  ls
   0 -1.8564244e+00 4.06e-03 1.02e+00  -6.0 0.00e+00    -  0.00e+00 0.00e+00   0
   1 -1.8560143e+00 8.92e-03 1.02e+00  -6.0 3.55e+05    -  9.36e-05 4.08e-05h  6
   2 -1.8563139e+00 8.91e-03 5.05e+01  -6.0 2.67e+03    -  2.22e-01 1.91e-03h  1
   3 -1.9074762e+00 1.08e+00 5.41e+02  -6.0 2.67e+03    -  1.59e-01 3.27e-01f  1
   4 -1.9465144e+00 2.27e+00 9.47e+02  -6.0 2.56e+03    -  2.88e-01 4.59e-01h  1
   5 -1.9699231e+00 5.05e+00 1.08e+03  -6.0 2.14e+03    -  5.44e-01 8.29e-01h  1
   6 -1.9684132e+00 4.98e+00 8.38e+02  -6.0 2.14e+03    -  1.72e-01 2.36e-01h  3
   7 -1.9577646e+00 1.46e-02 2.25e+01  -6.0 1.10e+00  -4.0 1.00e+00 1.00e+00h  1
   8 -1.9578723e+00 1.04e-02 5.54e+00  -6.0 6.28e-01  -4.5 6.24e-01 1.00e+00h  1
   9 -1.9581748e+00 1.20e-01 1.55e-01  -6.0 1.94e+00  -5.0 1.00e+00 1.00e+00h  1
iter    objective    inf_pr   inf_du lg(mu)  ||d||  lg(rg) alpha_du alpha_pr  ls
  10 -1.9582631e+00 9.57e-02 8.26e-01  -6.0 2.89e+00  -5.4 8.56e-01 4.73e-01h  1
  11 -1.9584964e+00 1.46e-01 2.13e-01  -6.0 5.83e+00  -5.9 1.00e+00 1.00e+00f  1
  12 -1.9586657e+00 2.34e-02 4.49e-01  -6.0 1.27e+01  -6.4 1.00e+00 1.00e+00h  1
  13 -1.9590621e+00 9.79e-02 1.90e-01  -6.0 4.52e+01  -6.9 1.00e+00 1.00e+00h  1
  14 -1.9600411e+00 4.96e-01 2.13e+00  -6.0 2.62e+02  -7.3 4.94e-01 4.06e-01h  1
  15 -1.9601896e+00 1.03e-01 1.42e+00  -6.0 1.94e+00  -5.1 1.00e+00 1.00e+00h  1
  16 -1.9602387e+00 7.63e-03 2.90e-01  -6.0 2.94e+00  -5.6 1.00e+00 1.00e+00h  1
  17 -1.9603819e+00 1.64e-02 7.99e-02  -6.0 9.48e+00  -6.1 1.00e+00 1.00e+00h  1
  18 -1.9607589e+00 1.47e-02 2.14e-02  -6.0 3.00e+01  -6.5 1.00e+00 1.00e+00h  1
  19 -1.9611283e+00 3.09e-02 4.73e+01  -6.0 2.42e+03    -  7.93e-01 1.30e-02h  1
iter    objective    inf_pr   inf_du lg(mu)  ||d||  lg(rg) alpha_du alpha_pr  ls
  20 -1.9788835e+00 3.88e+01 1.35e+01  -6.0 2.28e+03    -  1.00e+00 6.71e-01h  1
  21 -1.9794949e+00 3.45e+01 2.50e+01  -6.0 1.94e+03    -  5.62e-01 1.37e-01h  1
  22 -1.9748135e+00 5.57e+00 1.54e+02  -6.0 6.41e+02    -  6.03e-02 1.00e+00h  1
  23 -1.9825831e+00 4.21e+01 5.49e+01  -6.0 1.65e+03    -  1.14e-01 1.00e+00h  1
  24 -1.9826887e+00 4.20e+01 5.48e+01  -6.0 1.73e+01  -3.4 4.45e-03 1.30e-03h  1
  25 -1.9826897e+00 4.20e+01 5.49e+01  -6.0 1.18e+02  -3.9 5.15e-07 3.33e-05h  1
  26 -1.9826901e+00 4.20e+01 5.49e+01  -6.0 2.56e+02  -3.5 2.74e-08 2.99e-07f  2
  27 -1.9826901e+00 4.20e+01 5.66e+01  -6.0 1.08e+01  -2.1 7.72e-02 3.98e-05h  1
  28 -1.9825436e+00 4.00e+01 7.98e+01  -6.0 9.70e+02    -  7.78e-01 4.78e-02h  1
  29 -1.9795135e+00 1.01e+01 2.30e+00  -6.0 8.80e+02    -  1.00e+00 1.00e+00h  1
iter    objective    inf_pr   inf_du lg(mu)  ||d||  lg(rg) alpha_du alpha_pr  ls
  30 -1.9792745e+00 2.07e+00 3.25e-01  -6.0 3.79e+02    -  1.00e+00 1.00e+00h  1
  31 -1.9791542e+00 1.16e-03 4.87e-03  -6.0 1.12e+01    -  1.00e+00 1.00e+00h  1
  32 -1.9791539e+00 1.91e-06 1.23e-06  -6.0 3.69e-01    -  1.00e+00 1.00e+00h  1
  33 -1.9793262e+00 1.30e+00 8.00e+01  -7.5 8.05e+02    -  6.25e-01 3.49e-01h  1
  34 -1.9795660e+00 4.79e+00 5.12e+00  -7.5 5.81e+02    -  7.84e-01 8.76e-01h  1
  35 -1.9795583e+00 3.80e+00 3.96e+00  -7.5 7.19e+01    -  1.66e-01 2.07e-01h  1
  36 -1.9795064e+00 1.87e-01 2.53e-01  -7.5 9.62e+01    -  1.00e+00 1.00e+00h  1
  37 -1.9795073e+00 1.90e-04 1.02e-03  -7.5 3.35e+00    -  1.00e+00 1.00e+00h  1
  38 -1.9795074e+00 4.28e-06 3.47e-06  -7.5 4.77e-01    -  1.00e+00 1.00e+00h  1
  39 -1.9795074e+00 1.99e-09 6.74e-10  -7.5 1.03e-02    -  1.00e+00 1.00e+00h  1
iter    objective    inf_pr   inf_du lg(mu)  ||d||  lg(rg) alpha_du alpha_pr  ls
  40 -1.9795092e+00 1.59e-02 9.29e-01  -9.0 3.54e+01    -  9.23e-01 8.22e-01h  1
  41 -1.9795094e+00 4.73e-04 4.98e-01  -9.0 5.00e+00    -  8.91e-01 1.00e+00h  1
  42 -1.9795094e+00 3.27e-10 5.31e-09  -9.0 4.71e-03    -  1.00e+00 1.00e+00h  1

Number of Iterations....: 42

                                   (scaled)                 (unscaled)
Objective...............:  -1.5464917081599552e+00   -1.9795093864447426e+00
Dual infeasibility......:   5.3126786673643544e-09    6.8002286942263734e-09
Constraint violation....:   2.8113947454777577e-10    3.2741809263825417e-10
Complementarity.........:   1.1149408035709403e-09    1.4271242285708035e-09
Overall NLP error.......:   5.3126786673643544e-09    6.8002286942263734e-09


Number of objective function evaluations             = 55
Number of objective gradient evaluations             = 43
Number of equality constraint evaluations            = 55
Number of inequality constraint evaluations          = 55
Number of equality constraint Jacobian evaluations   = 43
Number of inequality constraint Jacobian evaluations = 43
Number of Lagrangian Hessian evaluations             = 42
Total CPU secs in IPOPT (w/o function evaluations)   =    101.396
Total CPU secs in NLP function evaluations           =      1.394

EXIT: Optimal Solution Found.
